(set-info :category "industrial")
(set-info :status sat)
(declare-fun x00 () (_ BitVec 8))
(declare-fun x02 () (_ BitVec 8))
(declare-fun x05 () (_ BitVec 8))
(declare-fun x07 () (_ BitVec 8))
(declare-fun x11 () (_ BitVec 8))
(declare-fun x12 () (_ BitVec 8))
(declare-fun x14 () (_ BitVec 8))
(declare-fun x16 () (_ BitVec 8))
(declare-fun x17 () (_ BitVec 8))
(declare-fun x18 () (_ BitVec 8))
(declare-fun x20 () (_ BitVec 8))
(declare-fun x21 () (_ BitVec 8))
(declare-fun x23 () (_ BitVec 8))
(declare-fun x24 () (_ BitVec 8))
(declare-fun x28 () (_ BitVec 8))
(declare-fun x30 () (_ BitVec 8))
(declare-fun x31 () (_ BitVec 8))
(declare-fun x32 () (_ BitVec 8))
(declare-fun x33 () (_ BitVec 8))
(declare-fun x38 () (_ BitVec 8))
(declare-fun x40 () (_ BitVec 8))
(declare-fun x42 () (_ BitVec 8))
(declare-fun x43 () (_ BitVec 8))
(declare-fun x44 () (_ BitVec 8))
(declare-fun x47 () (_ BitVec 8))
(declare-fun x51 () (_ BitVec 8))
(declare-fun x52 () (_ BitVec 8))
(declare-fun x54 () (_ BitVec 8))
(declare-fun x55 () (_ BitVec 8))
(declare-fun x56 () (_ BitVec 8))
(declare-fun x58 () (_ BitVec 8))
(declare-fun x61 () (_ BitVec 8))
(declare-fun x62 () (_ BitVec 8))
(declare-fun x65 () (_ BitVec 8))
(declare-fun x66 () (_ BitVec 8))
(declare-fun x68 () (_ BitVec 8))
(declare-fun x70 () (_ BitVec 8))
(declare-fun x71 () (_ BitVec 8))
(declare-fun x73 () (_ BitVec 8))
(declare-fun x74 () (_ BitVec 8))
(declare-fun x78 () (_ BitVec 8))
(declare-fun x81 () (_ BitVec 8))
(declare-fun x84 () (_ BitVec 8))
(declare-fun x85 () (_ BitVec 8))
(declare-fun x86 () (_ BitVec 8))
(declare-fun x87 () (_ BitVec 8))
(declare-fun x88 () (_ BitVec 8))
(assert (bvult x00 (_ bv9 8)))
(assert (bvult x02 (_ bv9 8)))
(assert (bvult x05 (_ bv9 8)))
(assert (bvult x07 (_ bv9 8)))
(assert (bvult x11 (_ bv9 8)))
(assert (bvult x12 (_ bv9 8)))
(assert (bvult x14 (_ bv9 8)))
(assert (bvult x16 (_ bv9 8)))
(assert (bvult x17 (_ bv9 8)))
(assert (bvult x18 (_ bv9 8)))
(assert (bvult x20 (_ bv9 8)))
(assert (bvult x21 (_ bv9 8)))
(assert (bvult x23 (_ bv9 8)))
(assert (bvult x24 (_ bv9 8)))
(assert (bvult x28 (_ bv9 8)))
(assert (bvult x30 (_ bv9 8)))
(assert (bvult x31 (_ bv9 8)))
(assert (bvult x32 (_ bv9 8)))
(assert (bvult x33 (_ bv9 8)))
(assert (bvult x38 (_ bv9 8)))
(assert (bvult x40 (_ bv9 8)))
(assert (bvult x42 (_ bv9 8)))
(assert (bvult x43 (_ bv9 8)))
(assert (bvult x44 (_ bv9 8)))
(assert (bvult x47 (_ bv9 8)))
(assert (bvult x51 (_ bv9 8)))
(assert (bvult x52 (_ bv9 8)))
(assert (bvult x54 (_ bv9 8)))
(assert (bvult x55 (_ bv9 8)))
(assert (bvult x56 (_ bv9 8)))
(assert (bvult x58 (_ bv9 8)))
(assert (bvult x61 (_ bv9 8)))
(assert (bvult x62 (_ bv9 8)))
(assert (bvult x65 (_ bv9 8)))
(assert (bvult x66 (_ bv9 8)))
(assert (bvult x68 (_ bv9 8)))
(assert (bvult x70 (_ bv9 8)))
(assert (bvult x71 (_ bv9 8)))
(assert (bvult x73 (_ bv9 8)))
(assert (bvult x74 (_ bv9 8)))
(assert (bvult x78 (_ bv9 8)))
(assert (bvult x81 (_ bv9 8)))
(assert (bvult x84 (_ bv9 8)))
(assert (bvult x85 (_ bv9 8)))
(assert (bvult x86 (_ bv9 8)))
(assert (bvult x87 (_ bv9 8)))
(assert (bvult x88 (_ bv9 8)))
(assert (not (= x00 (_ bv8 8))))
(assert (not (= x00 x02)))
(assert (not (= x00 (_ bv9 8))))
(assert (not (= x00 (_ bv3 8))))
(assert (not (= x00 x05)))
(assert (not (= x00 (_ bv6 8))))
(assert (not (= x00 x07)))
(assert (not (= x00 (_ bv7 8))))
(assert (not (= (_ bv8 8) x02)))
(assert (not (= (_ bv8 8) (_ bv9 8))))
(assert (not (= (_ bv8 8) (_ bv3 8))))
(assert (not (= (_ bv8 8) x05)))
(assert (not (= (_ bv8 8) (_ bv6 8))))
(assert (not (= (_ bv8 8) x07)))
(assert (not (= (_ bv8 8) (_ bv7 8))))
(assert (not (= x02 (_ bv9 8))))
(assert (not (= x02 (_ bv3 8))))
(assert (not (= x02 x05)))
(assert (not (= x02 (_ bv6 8))))
(assert (not (= x02 x07)))
(assert (not (= x02 (_ bv7 8))))
(assert (not (= (_ bv9 8) (_ bv3 8))))
(assert (not (= (_ bv9 8) x05)))
(assert (not (= (_ bv9 8) (_ bv6 8))))
(assert (not (= (_ bv9 8) x07)))
(assert (not (= (_ bv9 8) (_ bv7 8))))
(assert (not (= (_ bv3 8) x05)))
(assert (not (= (_ bv3 8) (_ bv6 8))))
(assert (not (= (_ bv3 8) x07)))
(assert (not (= (_ bv3 8) (_ bv7 8))))
(assert (not (= x05 (_ bv6 8))))
(assert (not (= x05 x07)))
(assert (not (= x05 (_ bv7 8))))
(assert (not (= (_ bv6 8) x07)))
(assert (not (= (_ bv6 8) (_ bv7 8))))
(assert (not (= x07 (_ bv7 8))))
(assert (not (= (_ bv3 8) x11)))
(assert (not (= (_ bv3 8) x12)))
(assert (not (= (_ bv3 8) (_ bv4 8))))
(assert (not (= (_ bv3 8) x14)))
(assert (not (= (_ bv3 8) (_ bv2 8))))
(assert (not (= (_ bv3 8) x16)))
(assert (not (= (_ bv3 8) x17)))
(assert (not (= (_ bv3 8) x18)))
(assert (not (= x11 x12)))
(assert (not (= x11 (_ bv4 8))))
(assert (not (= x11 x14)))
(assert (not (= x11 (_ bv2 8))))
(assert (not (= x11 x16)))
(assert (not (= x11 x17)))
(assert (not (= x11 x18)))
(assert (not (= x12 (_ bv4 8))))
(assert (not (= x12 x14)))
(assert (not (= x12 (_ bv2 8))))
(assert (not (= x12 x16)))
(assert (not (= x12 x17)))
(assert (not (= x12 x18)))
(assert (not (= (_ bv4 8) x14)))
(assert (not (= (_ bv4 8) (_ bv2 8))))
(assert (not (= (_ bv4 8) x16)))
(assert (not (= (_ bv4 8) x17)))
(assert (not (= (_ bv4 8) x18)))
(assert (not (= x14 (_ bv2 8))))
(assert (not (= x14 x16)))
(assert (not (= x14 x17)))
(assert (not (= x14 x18)))
(assert (not (= (_ bv2 8) x16)))
(assert (not (= (_ bv2 8) x17)))
(assert (not (= (_ bv2 8) x18)))
(assert (not (= x16 x17)))
(assert (not (= x16 x18)))
(assert (not (= x17 x18)))
(assert (not (= x20 x21)))
(assert (not (= x20 (_ bv5 8))))
(assert (not (= x20 x23)))
(assert (not (= x20 x24)))
(assert (not (= x20 (_ bv8 8))))
(assert (not (= x20 (_ bv3 8))))
(assert (not (= x20 (_ bv2 8))))
(assert (not (= x20 x28)))
(assert (not (= x21 (_ bv5 8))))
(assert (not (= x21 x23)))
(assert (not (= x21 x24)))
(assert (not (= x21 (_ bv8 8))))
(assert (not (= x21 (_ bv3 8))))
(assert (not (= x21 (_ bv2 8))))
(assert (not (= x21 x28)))
(assert (not (= (_ bv5 8) x23)))
(assert (not (= (_ bv5 8) x24)))
(assert (not (= (_ bv5 8) (_ bv8 8))))
(assert (not (= (_ bv5 8) (_ bv3 8))))
(assert (not (= (_ bv5 8) (_ bv2 8))))
(assert (not (= (_ bv5 8) x28)))
(assert (not (= x23 x24)))
(assert (not (= x23 (_ bv8 8))))
(assert (not (= x23 (_ bv3 8))))
(assert (not (= x23 (_ bv2 8))))
(assert (not (= x23 x28)))
(assert (not (= x24 (_ bv8 8))))
(assert (not (= x24 (_ bv3 8))))
(assert (not (= x24 (_ bv2 8))))
(assert (not (= x24 x28)))
(assert (not (= (_ bv8 8) (_ bv3 8))))
(assert (not (= (_ bv8 8) (_ bv2 8))))
(assert (not (= (_ bv8 8) x28)))
(assert (not (= (_ bv3 8) (_ bv2 8))))
(assert (not (= (_ bv3 8) x28)))
(assert (not (= (_ bv2 8) x28)))
(assert (not (= x30 x31)))
(assert (not (= x30 x32)))
(assert (not (= x30 x33)))
(assert (not (= x30 (_ bv5 8))))
(assert (not (= x30 (_ bv7 8))))
(assert (not (= x30 (_ bv2 8))))
(assert (not (= x30 (_ bv9 8))))
(assert (not (= x30 x38)))
(assert (not (= x31 x32)))
(assert (not (= x31 x33)))
(assert (not (= x31 (_ bv5 8))))
(assert (not (= x31 (_ bv7 8))))
(assert (not (= x31 (_ bv2 8))))
(assert (not (= x31 (_ bv9 8))))
(assert (not (= x31 x38)))
(assert (not (= x32 x33)))
(assert (not (= x32 (_ bv5 8))))
(assert (not (= x32 (_ bv7 8))))
(assert (not (= x32 (_ bv2 8))))
(assert (not (= x32 (_ bv9 8))))
(assert (not (= x32 x38)))
(assert (not (= x33 (_ bv5 8))))
(assert (not (= x33 (_ bv7 8))))
(assert (not (= x33 (_ bv2 8))))
(assert (not (= x33 (_ bv9 8))))
(assert (not (= x33 x38)))
(assert (not (= (_ bv5 8) (_ bv7 8))))
(assert (not (= (_ bv5 8) (_ bv2 8))))
(assert (not (= (_ bv5 8) (_ bv9 8))))
(assert (not (= (_ bv5 8) x38)))
(assert (not (= (_ bv7 8) (_ bv2 8))))
(assert (not (= (_ bv7 8) (_ bv9 8))))
(assert (not (= (_ bv7 8) x38)))
(assert (not (= (_ bv2 8) (_ bv9 8))))
(assert (not (= (_ bv2 8) x38)))
(assert (not (= (_ bv9 8) x38)))
(assert (not (= x40 (_ bv7 8))))
(assert (not (= x40 x42)))
(assert (not (= x40 x43)))
(assert (not (= x40 x44)))
(assert (not (= x40 (_ bv1 8))))
(assert (not (= x40 (_ bv8 8))))
(assert (not (= x40 x47)))
(assert (not (= x40 (_ bv4 8))))
(assert (not (= (_ bv7 8) x42)))
(assert (not (= (_ bv7 8) x43)))
(assert (not (= (_ bv7 8) x44)))
(assert (not (= (_ bv7 8) (_ bv1 8))))
(assert (not (= (_ bv7 8) (_ bv8 8))))
(assert (not (= (_ bv7 8) x47)))
(assert (not (= (_ bv7 8) (_ bv4 8))))
(assert (not (= x42 x43)))
(assert (not (= x42 x44)))
(assert (not (= x42 (_ bv1 8))))
(assert (not (= x42 (_ bv8 8))))
(assert (not (= x42 x47)))
(assert (not (= x42 (_ bv4 8))))
(assert (not (= x43 x44)))
(assert (not (= x43 (_ bv1 8))))
(assert (not (= x43 (_ bv8 8))))
(assert (not (= x43 x47)))
(assert (not (= x43 (_ bv4 8))))
(assert (not (= x44 (_ bv1 8))))
(assert (not (= x44 (_ bv8 8))))
(assert (not (= x44 x47)))
(assert (not (= x44 (_ bv4 8))))
(assert (not (= (_ bv1 8) (_ bv8 8))))
(assert (not (= (_ bv1 8) x47)))
(assert (not (= (_ bv1 8) (_ bv4 8))))
(assert (not (= (_ bv8 8) x47)))
(assert (not (= (_ bv8 8) (_ bv4 8))))
(assert (not (= x47 (_ bv4 8))))
(assert (not (= (_ bv5 8) x51)))
(assert (not (= (_ bv5 8) x52)))
(assert (not (= (_ bv5 8) (_ bv6 8))))
(assert (not (= (_ bv5 8) x54)))
(assert (not (= (_ bv5 8) x55)))
(assert (not (= (_ bv5 8) x56)))
(assert (not (= (_ bv5 8) (_ bv3 8))))
(assert (not (= (_ bv5 8) x58)))
(assert (not (= x51 x52)))
(assert (not (= x51 (_ bv6 8))))
(assert (not (= x51 x54)))
(assert (not (= x51 x55)))
(assert (not (= x51 x56)))
(assert (not (= x51 (_ bv3 8))))
(assert (not (= x51 x58)))
(assert (not (= x52 (_ bv6 8))))
(assert (not (= x52 x54)))
(assert (not (= x52 x55)))
(assert (not (= x52 x56)))
(assert (not (= x52 (_ bv3 8))))
(assert (not (= x52 x58)))
(assert (not (= (_ bv6 8) x54)))
(assert (not (= (_ bv6 8) x55)))
(assert (not (= (_ bv6 8) x56)))
(assert (not (= (_ bv6 8) (_ bv3 8))))
(assert (not (= (_ bv6 8) x58)))
(assert (not (= x54 x55)))
(assert (not (= x54 x56)))
(assert (not (= x54 (_ bv3 8))))
(assert (not (= x54 x58)))
(assert (not (= x55 x56)))
(assert (not (= x55 (_ bv3 8))))
(assert (not (= x55 x58)))
(assert (not (= x56 (_ bv3 8))))
(assert (not (= x56 x58)))
(assert (not (= (_ bv3 8) x58)))
(assert (not (= (_ bv7 8) x61)))
(assert (not (= (_ bv7 8) x62)))
(assert (not (= (_ bv7 8) (_ bv5 8))))
(assert (not (= (_ bv7 8) (_ bv8 8))))
(assert (not (= (_ bv7 8) x65)))
(assert (not (= (_ bv7 8) x66)))
(assert (not (= (_ bv7 8) (_ bv6 8))))
(assert (not (= (_ bv7 8) x68)))
(assert (not (= x61 x62)))
(assert (not (= x61 (_ bv5 8))))
(assert (not (= x61 (_ bv8 8))))
(assert (not (= x61 x65)))
(assert (not (= x61 x66)))
(assert (not (= x61 (_ bv6 8))))
(assert (not (= x61 x68)))
(assert (not (= x62 (_ bv5 8))))
(assert (not (= x62 (_ bv8 8))))
(assert (not (= x62 x65)))
(assert (not (= x62 x66)))
(assert (not (= x62 (_ bv6 8))))
(assert (not (= x62 x68)))
(assert (not (= (_ bv5 8) (_ bv8 8))))
(assert (not (= (_ bv5 8) x65)))
(assert (not (= (_ bv5 8) x66)))
(assert (not (= (_ bv5 8) (_ bv6 8))))
(assert (not (= (_ bv5 8) x68)))
(assert (not (= (_ bv8 8) x65)))
(assert (not (= (_ bv8 8) x66)))
(assert (not (= (_ bv8 8) (_ bv6 8))))
(assert (not (= (_ bv8 8) x68)))
(assert (not (= x65 x66)))
(assert (not (= x65 (_ bv6 8))))
(assert (not (= x65 x68)))
(assert (not (= x66 (_ bv6 8))))
(assert (not (= x66 x68)))
(assert (not (= (_ bv6 8) x68)))
(assert (not (= x70 x71)))
(assert (not (= x70 (_ bv2 8))))
(assert (not (= x70 x73)))
(assert (not (= x70 x74)))
(assert (not (= x70 (_ bv6 8))))
(assert (not (= x70 (_ bv9 8))))
(assert (not (= x70 (_ bv1 8))))
(assert (not (= x70 x78)))
(assert (not (= x71 (_ bv2 8))))
(assert (not (= x71 x73)))
(assert (not (= x71 x74)))
(assert (not (= x71 (_ bv6 8))))
(assert (not (= x71 (_ bv9 8))))
(assert (not (= x71 (_ bv1 8))))
(assert (not (= x71 x78)))
(assert (not (= (_ bv2 8) x73)))
(assert (not (= (_ bv2 8) x74)))
(assert (not (= (_ bv2 8) (_ bv6 8))))
(assert (not (= (_ bv2 8) (_ bv9 8))))
(assert (not (= (_ bv2 8) (_ bv1 8))))
(assert (not (= (_ bv2 8) x78)))
(assert (not (= x73 x74)))
(assert (not (= x73 (_ bv6 8))))
(assert (not (= x73 (_ bv9 8))))
(assert (not (= x73 (_ bv1 8))))
(assert (not (= x73 x78)))
(assert (not (= x74 (_ bv6 8))))
(assert (not (= x74 (_ bv9 8))))
(assert (not (= x74 (_ bv1 8))))
(assert (not (= x74 x78)))
(assert (not (= (_ bv6 8) (_ bv9 8))))
(assert (not (= (_ bv6 8) (_ bv1 8))))
(assert (not (= (_ bv6 8) x78)))
(assert (not (= (_ bv9 8) (_ bv1 8))))
(assert (not (= (_ bv9 8) x78)))
(assert (not (= (_ bv1 8) x78)))
(assert (not (= (_ bv4 8) x81)))
(assert (not (= (_ bv4 8) (_ bv3 8))))
(assert (not (= (_ bv4 8) (_ bv2 8))))
(assert (not (= (_ bv4 8) x84)))
(assert (not (= (_ bv4 8) x85)))
(assert (not (= (_ bv4 8) x86)))
(assert (not (= (_ bv4 8) x87)))
(assert (not (= (_ bv4 8) x88)))
(assert (not (= x81 (_ bv3 8))))
(assert (not (= x81 (_ bv2 8))))
(assert (not (= x81 x84)))
(assert (not (= x81 x85)))
(assert (not (= x81 x86)))
(assert (not (= x81 x87)))
(assert (not (= x81 x88)))
(assert (not (= (_ bv3 8) (_ bv2 8))))
(assert (not (= (_ bv3 8) x84)))
(assert (not (= (_ bv3 8) x85)))
(assert (not (= (_ bv3 8) x86)))
(assert (not (= (_ bv3 8) x87)))
(assert (not (= (_ bv3 8) x88)))
(assert (not (= (_ bv2 8) x84)))
(assert (not (= (_ bv2 8) x85)))
(assert (not (= (_ bv2 8) x86)))
(assert (not (= (_ bv2 8) x87)))
(assert (not (= (_ bv2 8) x88)))
(assert (not (= x84 x85)))
(assert (not (= x84 x86)))
(assert (not (= x84 x87)))
(assert (not (= x84 x88)))
(assert (not (= x85 x86)))
(assert (not (= x85 x87)))
(assert (not (= x85 x88)))
(assert (not (= x86 x87)))
(assert (not (= x86 x88)))
(assert (not (= x87 x88)))
(assert (not (= x00 (_ bv3 8))))
(assert (not (= x00 x20)))
(assert (not (= x00 x30)))
(assert (not (= x00 x40)))
(assert (not (= x00 (_ bv5 8))))
(assert (not (= x00 (_ bv7 8))))
(assert (not (= x00 x70)))
(assert (not (= x00 (_ bv4 8))))
(assert (not (= (_ bv3 8) x20)))
(assert (not (= (_ bv3 8) x30)))
(assert (not (= (_ bv3 8) x40)))
(assert (not (= (_ bv3 8) (_ bv5 8))))
(assert (not (= (_ bv3 8) (_ bv7 8))))
(assert (not (= (_ bv3 8) x70)))
(assert (not (= (_ bv3 8) (_ bv4 8))))
(assert (not (= x20 x30)))
(assert (not (= x20 x40)))
(assert (not (= x20 (_ bv5 8))))
(assert (not (= x20 (_ bv7 8))))
(assert (not (= x20 x70)))
(assert (not (= x20 (_ bv4 8))))
(assert (not (= x30 x40)))
(assert (not (= x30 (_ bv5 8))))
(assert (not (= x30 (_ bv7 8))))
(assert (not (= x30 x70)))
(assert (not (= x30 (_ bv4 8))))
(assert (not (= x40 (_ bv5 8))))
(assert (not (= x40 (_ bv7 8))))
(assert (not (= x40 x70)))
(assert (not (= x40 (_ bv4 8))))
(assert (not (= (_ bv5 8) (_ bv7 8))))
(assert (not (= (_ bv5 8) x70)))
(assert (not (= (_ bv5 8) (_ bv4 8))))
(assert (not (= (_ bv7 8) x70)))
(assert (not (= (_ bv7 8) (_ bv4 8))))
(assert (not (= x70 (_ bv4 8))))
(assert (not (= (_ bv8 8) x11)))
(assert (not (= (_ bv8 8) x21)))
(assert (not (= (_ bv8 8) x31)))
(assert (not (= (_ bv8 8) (_ bv7 8))))
(assert (not (= (_ bv8 8) x51)))
(assert (not (= (_ bv8 8) x61)))
(assert (not (= (_ bv8 8) x71)))
(assert (not (= (_ bv8 8) x81)))
(assert (not (= x11 x21)))
(assert (not (= x11 x31)))
(assert (not (= x11 (_ bv7 8))))
(assert (not (= x11 x51)))
(assert (not (= x11 x61)))
(assert (not (= x11 x71)))
(assert (not (= x11 x81)))
(assert (not (= x21 x31)))
(assert (not (= x21 (_ bv7 8))))
(assert (not (= x21 x51)))
(assert (not (= x21 x61)))
(assert (not (= x21 x71)))
(assert (not (= x21 x81)))
(assert (not (= x31 (_ bv7 8))))
(assert (not (= x31 x51)))
(assert (not (= x31 x61)))
(assert (not (= x31 x71)))
(assert (not (= x31 x81)))
(assert (not (= (_ bv7 8) x51)))
(assert (not (= (_ bv7 8) x61)))
(assert (not (= (_ bv7 8) x71)))
(assert (not (= (_ bv7 8) x81)))
(assert (not (= x51 x61)))
(assert (not (= x51 x71)))
(assert (not (= x51 x81)))
(assert (not (= x61 x71)))
(assert (not (= x61 x81)))
(assert (not (= x71 x81)))
(assert (not (= x02 x12)))
(assert (not (= x02 (_ bv5 8))))
(assert (not (= x02 x32)))
(assert (not (= x02 x42)))
(assert (not (= x02 x52)))
(assert (not (= x02 x62)))
(assert (not (= x02 (_ bv2 8))))
(assert (not (= x02 (_ bv3 8))))
(assert (not (= x12 (_ bv5 8))))
(assert (not (= x12 x32)))
(assert (not (= x12 x42)))
(assert (not (= x12 x52)))
(assert (not (= x12 x62)))
(assert (not (= x12 (_ bv2 8))))
(assert (not (= x12 (_ bv3 8))))
(assert (not (= (_ bv5 8) x32)))
(assert (not (= (_ bv5 8) x42)))
(assert (not (= (_ bv5 8) x52)))
(assert (not (= (_ bv5 8) x62)))
(assert (not (= (_ bv5 8) (_ bv2 8))))
(assert (not (= (_ bv5 8) (_ bv3 8))))
(assert (not (= x32 x42)))
(assert (not (= x32 x52)))
(assert (not (= x32 x62)))
(assert (not (= x32 (_ bv2 8))))
(assert (not (= x32 (_ bv3 8))))
(assert (not (= x42 x52)))
(assert (not (= x42 x62)))
(assert (not (= x42 (_ bv2 8))))
(assert (not (= x42 (_ bv3 8))))
(assert (not (= x52 x62)))
(assert (not (= x52 (_ bv2 8))))
(assert (not (= x52 (_ bv3 8))))
(assert (not (= x62 (_ bv2 8))))
(assert (not (= x62 (_ bv3 8))))
(assert (not (= (_ bv2 8) (_ bv3 8))))
(assert (not (= (_ bv9 8) (_ bv4 8))))
(assert (not (= (_ bv9 8) x23)))
(assert (not (= (_ bv9 8) x33)))
(assert (not (= (_ bv9 8) x43)))
(assert (not (= (_ bv9 8) (_ bv6 8))))
(assert (not (= (_ bv9 8) (_ bv5 8))))
(assert (not (= (_ bv9 8) x73)))
(assert (not (= (_ bv9 8) (_ bv2 8))))
(assert (not (= (_ bv4 8) x23)))
(assert (not (= (_ bv4 8) x33)))
(assert (not (= (_ bv4 8) x43)))
(assert (not (= (_ bv4 8) (_ bv6 8))))
(assert (not (= (_ bv4 8) (_ bv5 8))))
(assert (not (= (_ bv4 8) x73)))
(assert (not (= (_ bv4 8) (_ bv2 8))))
(assert (not (= x23 x33)))
(assert (not (= x23 x43)))
(assert (not (= x23 (_ bv6 8))))
(assert (not (= x23 (_ bv5 8))))
(assert (not (= x23 x73)))
(assert (not (= x23 (_ bv2 8))))
(assert (not (= x33 x43)))
(assert (not (= x33 (_ bv6 8))))
(assert (not (= x33 (_ bv5 8))))
(assert (not (= x33 x73)))
(assert (not (= x33 (_ bv2 8))))
(assert (not (= x43 (_ bv6 8))))
(assert (not (= x43 (_ bv5 8))))
(assert (not (= x43 x73)))
(assert (not (= x43 (_ bv2 8))))
(assert (not (= (_ bv6 8) (_ bv5 8))))
(assert (not (= (_ bv6 8) x73)))
(assert (not (= (_ bv6 8) (_ bv2 8))))
(assert (not (= (_ bv5 8) x73)))
(assert (not (= (_ bv5 8) (_ bv2 8))))
(assert (not (= x73 (_ bv2 8))))
(assert (not (= (_ bv3 8) x14)))
(assert (not (= (_ bv3 8) x24)))
(assert (not (= (_ bv3 8) (_ bv5 8))))
(assert (not (= (_ bv3 8) x44)))
(assert (not (= (_ bv3 8) x54)))
(assert (not (= (_ bv3 8) (_ bv8 8))))
(assert (not (= (_ bv3 8) x74)))
(assert (not (= (_ bv3 8) x84)))
(assert (not (= x14 x24)))
(assert (not (= x14 (_ bv5 8))))
(assert (not (= x14 x44)))
(assert (not (= x14 x54)))
(assert (not (= x14 (_ bv8 8))))
(assert (not (= x14 x74)))
(assert (not (= x14 x84)))
(assert (not (= x24 (_ bv5 8))))
(assert (not (= x24 x44)))
(assert (not (= x24 x54)))
(assert (not (= x24 (_ bv8 8))))
(assert (not (= x24 x74)))
(assert (not (= x24 x84)))
(assert (not (= (_ bv5 8) x44)))
(assert (not (= (_ bv5 8) x54)))
(assert (not (= (_ bv5 8) (_ bv8 8))))
(assert (not (= (_ bv5 8) x74)))
(assert (not (= (_ bv5 8) x84)))
(assert (not (= x44 x54)))
(assert (not (= x44 (_ bv8 8))))
(assert (not (= x44 x74)))
(assert (not (= x44 x84)))
(assert (not (= x54 (_ bv8 8))))
(assert (not (= x54 x74)))
(assert (not (= x54 x84)))
(assert (not (= (_ bv8 8) x74)))
(assert (not (= (_ bv8 8) x84)))
(assert (not (= x74 x84)))
(assert (not (= x05 (_ bv2 8))))
(assert (not (= x05 (_ bv8 8))))
(assert (not (= x05 (_ bv7 8))))
(assert (not (= x05 (_ bv1 8))))
(assert (not (= x05 x55)))
(assert (not (= x05 x65)))
(assert (not (= x05 (_ bv6 8))))
(assert (not (= x05 x85)))
(assert (not (= (_ bv2 8) (_ bv8 8))))
(assert (not (= (_ bv2 8) (_ bv7 8))))
(assert (not (= (_ bv2 8) (_ bv1 8))))
(assert (not (= (_ bv2 8) x55)))
(assert (not (= (_ bv2 8) x65)))
(assert (not (= (_ bv2 8) (_ bv6 8))))
(assert (not (= (_ bv2 8) x85)))
(assert (not (= (_ bv8 8) (_ bv7 8))))
(assert (not (= (_ bv8 8) (_ bv1 8))))
(assert (not (= (_ bv8 8) x55)))
(assert (not (= (_ bv8 8) x65)))
(assert (not (= (_ bv8 8) (_ bv6 8))))
(assert (not (= (_ bv8 8) x85)))
(assert (not (= (_ bv7 8) (_ bv1 8))))
(assert (not (= (_ bv7 8) x55)))
(assert (not (= (_ bv7 8) x65)))
(assert (not (= (_ bv7 8) (_ bv6 8))))
(assert (not (= (_ bv7 8) x85)))
(assert (not (= (_ bv1 8) x55)))
(assert (not (= (_ bv1 8) x65)))
(assert (not (= (_ bv1 8) (_ bv6 8))))
(assert (not (= (_ bv1 8) x85)))
(assert (not (= x55 x65)))
(assert (not (= x55 (_ bv6 8))))
(assert (not (= x55 x85)))
(assert (not (= x65 (_ bv6 8))))
(assert (not (= x65 x85)))
(assert (not (= (_ bv6 8) x85)))
(assert (not (= (_ bv6 8) x16)))
(assert (not (= (_ bv6 8) (_ bv3 8))))
(assert (not (= (_ bv6 8) (_ bv2 8))))
(assert (not (= (_ bv6 8) (_ bv8 8))))
(assert (not (= (_ bv6 8) x56)))
(assert (not (= (_ bv6 8) x66)))
(assert (not (= (_ bv6 8) (_ bv9 8))))
(assert (not (= (_ bv6 8) x86)))
(assert (not (= x16 (_ bv3 8))))
(assert (not (= x16 (_ bv2 8))))
(assert (not (= x16 (_ bv8 8))))
(assert (not (= x16 x56)))
(assert (not (= x16 x66)))
(assert (not (= x16 (_ bv9 8))))
(assert (not (= x16 x86)))
(assert (not (= (_ bv3 8) (_ bv2 8))))
(assert (not (= (_ bv3 8) (_ bv8 8))))
(assert (not (= (_ bv3 8) x56)))
(assert (not (= (_ bv3 8) x66)))
(assert (not (= (_ bv3 8) (_ bv9 8))))
(assert (not (= (_ bv3 8) x86)))
(assert (not (= (_ bv2 8) (_ bv8 8))))
(assert (not (= (_ bv2 8) x56)))
(assert (not (= (_ bv2 8) x66)))
(assert (not (= (_ bv2 8) (_ bv9 8))))
(assert (not (= (_ bv2 8) x86)))
(assert (not (= (_ bv8 8) x56)))
(assert (not (= (_ bv8 8) x66)))
(assert (not (= (_ bv8 8) (_ bv9 8))))
(assert (not (= (_ bv8 8) x86)))
(assert (not (= x56 x66)))
(assert (not (= x56 (_ bv9 8))))
(assert (not (= x56 x86)))
(assert (not (= x66 (_ bv9 8))))
(assert (not (= x66 x86)))
(assert (not (= (_ bv9 8) x86)))
(assert (not (= x07 x17)))
(assert (not (= x07 (_ bv2 8))))
(assert (not (= x07 (_ bv9 8))))
(assert (not (= x07 x47)))
(assert (not (= x07 (_ bv3 8))))
(assert (not (= x07 (_ bv6 8))))
(assert (not (= x07 (_ bv1 8))))
(assert (not (= x07 x87)))
(assert (not (= x17 (_ bv2 8))))
(assert (not (= x17 (_ bv9 8))))
(assert (not (= x17 x47)))
(assert (not (= x17 (_ bv3 8))))
(assert (not (= x17 (_ bv6 8))))
(assert (not (= x17 (_ bv1 8))))
(assert (not (= x17 x87)))
(assert (not (= (_ bv2 8) (_ bv9 8))))
(assert (not (= (_ bv2 8) x47)))
(assert (not (= (_ bv2 8) (_ bv3 8))))
(assert (not (= (_ bv2 8) (_ bv6 8))))
(assert (not (= (_ bv2 8) (_ bv1 8))))
(assert (not (= (_ bv2 8) x87)))
(assert (not (= (_ bv9 8) x47)))
(assert (not (= (_ bv9 8) (_ bv3 8))))
(assert (not (= (_ bv9 8) (_ bv6 8))))
(assert (not (= (_ bv9 8) (_ bv1 8))))
(assert (not (= (_ bv9 8) x87)))
(assert (not (= x47 (_ bv3 8))))
(assert (not (= x47 (_ bv6 8))))
(assert (not (= x47 (_ bv1 8))))
(assert (not (= x47 x87)))
(assert (not (= (_ bv3 8) (_ bv6 8))))
(assert (not (= (_ bv3 8) (_ bv1 8))))
(assert (not (= (_ bv3 8) x87)))
(assert (not (= (_ bv6 8) (_ bv1 8))))
(assert (not (= (_ bv6 8) x87)))
(assert (not (= (_ bv1 8) x87)))
(assert (not (= (_ bv7 8) x18)))
(assert (not (= (_ bv7 8) x28)))
(assert (not (= (_ bv7 8) x38)))
(assert (not (= (_ bv7 8) (_ bv4 8))))
(assert (not (= (_ bv7 8) x58)))
(assert (not (= (_ bv7 8) x68)))
(assert (not (= (_ bv7 8) x78)))
(assert (not (= (_ bv7 8) x88)))
(assert (not (= x18 x28)))
(assert (not (= x18 x38)))
(assert (not (= x18 (_ bv4 8))))
(assert (not (= x18 x58)))
(assert (not (= x18 x68)))
(assert (not (= x18 x78)))
(assert (not (= x18 x88)))
(assert (not (= x28 x38)))
(assert (not (= x28 (_ bv4 8))))
(assert (not (= x28 x58)))
(assert (not (= x28 x68)))
(assert (not (= x28 x78)))
(assert (not (= x28 x88)))
(assert (not (= x38 (_ bv4 8))))
(assert (not (= x38 x58)))
(assert (not (= x38 x68)))
(assert (not (= x38 x78)))
(assert (not (= x38 x88)))
(assert (not (= (_ bv4 8) x58)))
(assert (not (= (_ bv4 8) x68)))
(assert (not (= (_ bv4 8) x78)))
(assert (not (= (_ bv4 8) x88)))
(assert (not (= x58 x68)))
(assert (not (= x58 x78)))
(assert (not (= x58 x88)))
(assert (not (= x68 x78)))
(assert (not (= x68 x88)))
(assert (not (= x78 x88)))
(assert (not (= x00 (_ bv8 8))))
(assert (not (= x00 x02)))
(assert (not (= x00 (_ bv3 8))))
(assert (not (= x00 x11)))
(assert (not (= x00 x12)))
(assert (not (= x00 x20)))
(assert (not (= x00 x21)))
(assert (not (= x00 (_ bv5 8))))
(assert (not (= (_ bv8 8) x02)))
(assert (not (= (_ bv8 8) (_ bv3 8))))
(assert (not (= (_ bv8 8) x11)))
(assert (not (= (_ bv8 8) x12)))
(assert (not (= (_ bv8 8) x20)))
(assert (not (= (_ bv8 8) x21)))
(assert (not (= (_ bv8 8) (_ bv5 8))))
(assert (not (= x02 (_ bv3 8))))
(assert (not (= x02 x11)))
(assert (not (= x02 x12)))
(assert (not (= x02 x20)))
(assert (not (= x02 x21)))
(assert (not (= x02 (_ bv5 8))))
(assert (not (= (_ bv3 8) x11)))
(assert (not (= (_ bv3 8) x12)))
(assert (not (= (_ bv3 8) x20)))
(assert (not (= (_ bv3 8) x21)))
(assert (not (= (_ bv3 8) (_ bv5 8))))
(assert (not (= x11 x12)))
(assert (not (= x11 x20)))
(assert (not (= x11 x21)))
(assert (not (= x11 (_ bv5 8))))
(assert (not (= x12 x20)))
(assert (not (= x12 x21)))
(assert (not (= x12 (_ bv5 8))))
(assert (not (= x20 x21)))
(assert (not (= x20 (_ bv5 8))))
(assert (not (= x21 (_ bv5 8))))
(assert (not (= (_ bv9 8) (_ bv3 8))))
(assert (not (= (_ bv9 8) x05)))
(assert (not (= (_ bv9 8) (_ bv4 8))))
(assert (not (= (_ bv9 8) x14)))
(assert (not (= (_ bv9 8) (_ bv2 8))))
(assert (not (= (_ bv9 8) x23)))
(assert (not (= (_ bv9 8) x24)))
(assert (not (= (_ bv9 8) (_ bv8 8))))
(assert (not (= (_ bv3 8) x05)))
(assert (not (= (_ bv3 8) (_ bv4 8))))
(assert (not (= (_ bv3 8) x14)))
(assert (not (= (_ bv3 8) (_ bv2 8))))
(assert (not (= (_ bv3 8) x23)))
(assert (not (= (_ bv3 8) x24)))
(assert (not (= (_ bv3 8) (_ bv8 8))))
(assert (not (= x05 (_ bv4 8))))
(assert (not (= x05 x14)))
(assert (not (= x05 (_ bv2 8))))
(assert (not (= x05 x23)))
(assert (not (= x05 x24)))
(assert (not (= x05 (_ bv8 8))))
(assert (not (= (_ bv4 8) x14)))
(assert (not (= (_ bv4 8) (_ bv2 8))))
(assert (not (= (_ bv4 8) x23)))
(assert (not (= (_ bv4 8) x24)))
(assert (not (= (_ bv4 8) (_ bv8 8))))
(assert (not (= x14 (_ bv2 8))))
(assert (not (= x14 x23)))
(assert (not (= x14 x24)))
(assert (not (= x14 (_ bv8 8))))
(assert (not (= (_ bv2 8) x23)))
(assert (not (= (_ bv2 8) x24)))
(assert (not (= (_ bv2 8) (_ bv8 8))))
(assert (not (= x23 x24)))
(assert (not (= x23 (_ bv8 8))))
(assert (not (= x24 (_ bv8 8))))
(assert (not (= (_ bv6 8) x07)))
(assert (not (= (_ bv6 8) (_ bv7 8))))
(assert (not (= (_ bv6 8) x16)))
(assert (not (= (_ bv6 8) x17)))
(assert (not (= (_ bv6 8) x18)))
(assert (not (= (_ bv6 8) (_ bv3 8))))
(assert (not (= (_ bv6 8) (_ bv2 8))))
(assert (not (= (_ bv6 8) x28)))
(assert (not (= x07 (_ bv7 8))))
(assert (not (= x07 x16)))
(assert (not (= x07 x17)))
(assert (not (= x07 x18)))
(assert (not (= x07 (_ bv3 8))))
(assert (not (= x07 (_ bv2 8))))
(assert (not (= x07 x28)))
(assert (not (= (_ bv7 8) x16)))
(assert (not (= (_ bv7 8) x17)))
(assert (not (= (_ bv7 8) x18)))
(assert (not (= (_ bv7 8) (_ bv3 8))))
(assert (not (= (_ bv7 8) (_ bv2 8))))
(assert (not (= (_ bv7 8) x28)))
(assert (not (= x16 x17)))
(assert (not (= x16 x18)))
(assert (not (= x16 (_ bv3 8))))
(assert (not (= x16 (_ bv2 8))))
(assert (not (= x16 x28)))
(assert (not (= x17 x18)))
(assert (not (= x17 (_ bv3 8))))
(assert (not (= x17 (_ bv2 8))))
(assert (not (= x17 x28)))
(assert (not (= x18 (_ bv3 8))))
(assert (not (= x18 (_ bv2 8))))
(assert (not (= x18 x28)))
(assert (not (= (_ bv3 8) (_ bv2 8))))
(assert (not (= (_ bv3 8) x28)))
(assert (not (= (_ bv2 8) x28)))
(assert (not (= x30 x31)))
(assert (not (= x30 x32)))
(assert (not (= x30 x40)))
(assert (not (= x30 (_ bv7 8))))
(assert (not (= x30 x42)))
(assert (not (= x30 (_ bv5 8))))
(assert (not (= x30 x51)))
(assert (not (= x30 x52)))
(assert (not (= x31 x32)))
(assert (not (= x31 x40)))
(assert (not (= x31 (_ bv7 8))))
(assert (not (= x31 x42)))
(assert (not (= x31 (_ bv5 8))))
(assert (not (= x31 x51)))
(assert (not (= x31 x52)))
(assert (not (= x32 x40)))
(assert (not (= x32 (_ bv7 8))))
(assert (not (= x32 x42)))
(assert (not (= x32 (_ bv5 8))))
(assert (not (= x32 x51)))
(assert (not (= x32 x52)))
(assert (not (= x40 (_ bv7 8))))
(assert (not (= x40 x42)))
(assert (not (= x40 (_ bv5 8))))
(assert (not (= x40 x51)))
(assert (not (= x40 x52)))
(assert (not (= (_ bv7 8) x42)))
(assert (not (= (_ bv7 8) (_ bv5 8))))
(assert (not (= (_ bv7 8) x51)))
(assert (not (= (_ bv7 8) x52)))
(assert (not (= x42 (_ bv5 8))))
(assert (not (= x42 x51)))
(assert (not (= x42 x52)))
(assert (not (= (_ bv5 8) x51)))
(assert (not (= (_ bv5 8) x52)))
(assert (not (= x51 x52)))
(assert (not (= x33 (_ bv5 8))))
(assert (not (= x33 (_ bv7 8))))
(assert (not (= x33 x43)))
(assert (not (= x33 x44)))
(assert (not (= x33 (_ bv1 8))))
(assert (not (= x33 (_ bv6 8))))
(assert (not (= x33 x54)))
(assert (not (= x33 x55)))
(assert (not (= (_ bv5 8) (_ bv7 8))))
(assert (not (= (_ bv5 8) x43)))
(assert (not (= (_ bv5 8) x44)))
(assert (not (= (_ bv5 8) (_ bv1 8))))
(assert (not (= (_ bv5 8) (_ bv6 8))))
(assert (not (= (_ bv5 8) x54)))
(assert (not (= (_ bv5 8) x55)))
(assert (not (= (_ bv7 8) x43)))
(assert (not (= (_ bv7 8) x44)))
(assert (not (= (_ bv7 8) (_ bv1 8))))
(assert (not (= (_ bv7 8) (_ bv6 8))))
(assert (not (= (_ bv7 8) x54)))
(assert (not (= (_ bv7 8) x55)))
(assert (not (= x43 x44)))
(assert (not (= x43 (_ bv1 8))))
(assert (not (= x43 (_ bv6 8))))
(assert (not (= x43 x54)))
(assert (not (= x43 x55)))
(assert (not (= x44 (_ bv1 8))))
(assert (not (= x44 (_ bv6 8))))
(assert (not (= x44 x54)))
(assert (not (= x44 x55)))
(assert (not (= (_ bv1 8) (_ bv6 8))))
(assert (not (= (_ bv1 8) x54)))
(assert (not (= (_ bv1 8) x55)))
(assert (not (= (_ bv6 8) x54)))
(assert (not (= (_ bv6 8) x55)))
(assert (not (= x54 x55)))
(assert (not (= (_ bv2 8) (_ bv9 8))))
(assert (not (= (_ bv2 8) x38)))
(assert (not (= (_ bv2 8) (_ bv8 8))))
(assert (not (= (_ bv2 8) x47)))
(assert (not (= (_ bv2 8) (_ bv4 8))))
(assert (not (= (_ bv2 8) x56)))
(assert (not (= (_ bv2 8) (_ bv3 8))))
(assert (not (= (_ bv2 8) x58)))
(assert (not (= (_ bv9 8) x38)))
(assert (not (= (_ bv9 8) (_ bv8 8))))
(assert (not (= (_ bv9 8) x47)))
(assert (not (= (_ bv9 8) (_ bv4 8))))
(assert (not (= (_ bv9 8) x56)))
(assert (not (= (_ bv9 8) (_ bv3 8))))
(assert (not (= (_ bv9 8) x58)))
(assert (not (= x38 (_ bv8 8))))
(assert (not (= x38 x47)))
(assert (not (= x38 (_ bv4 8))))
(assert (not (= x38 x56)))
(assert (not (= x38 (_ bv3 8))))
(assert (not (= x38 x58)))
(assert (not (= (_ bv8 8) x47)))
(assert (not (= (_ bv8 8) (_ bv4 8))))
(assert (not (= (_ bv8 8) x56)))
(assert (not (= (_ bv8 8) (_ bv3 8))))
(assert (not (= (_ bv8 8) x58)))
(assert (not (= x47 (_ bv4 8))))
(assert (not (= x47 x56)))
(assert (not (= x47 (_ bv3 8))))
(assert (not (= x47 x58)))
(assert (not (= (_ bv4 8) x56)))
(assert (not (= (_ bv4 8) (_ bv3 8))))
(assert (not (= (_ bv4 8) x58)))
(assert (not (= x56 (_ bv3 8))))
(assert (not (= x56 x58)))
(assert (not (= (_ bv3 8) x58)))
(assert (not (= (_ bv7 8) x61)))
(assert (not (= (_ bv7 8) x62)))
(assert (not (= (_ bv7 8) x70)))
(assert (not (= (_ bv7 8) x71)))
(assert (not (= (_ bv7 8) (_ bv2 8))))
(assert (not (= (_ bv7 8) (_ bv4 8))))
(assert (not (= (_ bv7 8) x81)))
(assert (not (= (_ bv7 8) (_ bv3 8))))
(assert (not (= x61 x62)))
(assert (not (= x61 x70)))
(assert (not (= x61 x71)))
(assert (not (= x61 (_ bv2 8))))
(assert (not (= x61 (_ bv4 8))))
(assert (not (= x61 x81)))
(assert (not (= x61 (_ bv3 8))))
(assert (not (= x62 x70)))
(assert (not (= x62 x71)))
(assert (not (= x62 (_ bv2 8))))
(assert (not (= x62 (_ bv4 8))))
(assert (not (= x62 x81)))
(assert (not (= x62 (_ bv3 8))))
(assert (not (= x70 x71)))
(assert (not (= x70 (_ bv2 8))))
(assert (not (= x70 (_ bv4 8))))
(assert (not (= x70 x81)))
(assert (not (= x70 (_ bv3 8))))
(assert (not (= x71 (_ bv2 8))))
(assert (not (= x71 (_ bv4 8))))
(assert (not (= x71 x81)))
(assert (not (= x71 (_ bv3 8))))
(assert (not (= (_ bv2 8) (_ bv4 8))))
(assert (not (= (_ bv2 8) x81)))
(assert (not (= (_ bv2 8) (_ bv3 8))))
(assert (not (= (_ bv4 8) x81)))
(assert (not (= (_ bv4 8) (_ bv3 8))))
(assert (not (= x81 (_ bv3 8))))
(assert (not (= (_ bv5 8) (_ bv8 8))))
(assert (not (= (_ bv5 8) x65)))
(assert (not (= (_ bv5 8) x73)))
(assert (not (= (_ bv5 8) x74)))
(assert (not (= (_ bv5 8) (_ bv6 8))))
(assert (not (= (_ bv5 8) (_ bv2 8))))
(assert (not (= (_ bv5 8) x84)))
(assert (not (= (_ bv5 8) x85)))
(assert (not (= (_ bv8 8) x65)))
(assert (not (= (_ bv8 8) x73)))
(assert (not (= (_ bv8 8) x74)))
(assert (not (= (_ bv8 8) (_ bv6 8))))
(assert (not (= (_ bv8 8) (_ bv2 8))))
(assert (not (= (_ bv8 8) x84)))
(assert (not (= (_ bv8 8) x85)))
(assert (not (= x65 x73)))
(assert (not (= x65 x74)))
(assert (not (= x65 (_ bv6 8))))
(assert (not (= x65 (_ bv2 8))))
(assert (not (= x65 x84)))
(assert (not (= x65 x85)))
(assert (not (= x73 x74)))
(assert (not (= x73 (_ bv6 8))))
(assert (not (= x73 (_ bv2 8))))
(assert (not (= x73 x84)))
(assert (not (= x73 x85)))
(assert (not (= x74 (_ bv6 8))))
(assert (not (= x74 (_ bv2 8))))
(assert (not (= x74 x84)))
(assert (not (= x74 x85)))
(assert (not (= (_ bv6 8) (_ bv2 8))))
(assert (not (= (_ bv6 8) x84)))
(assert (not (= (_ bv6 8) x85)))
(assert (not (= (_ bv2 8) x84)))
(assert (not (= (_ bv2 8) x85)))
(assert (not (= x84 x85)))
(assert (not (= x66 (_ bv6 8))))
(assert (not (= x66 x68)))
(assert (not (= x66 (_ bv9 8))))
(assert (not (= x66 (_ bv1 8))))
(assert (not (= x66 x78)))
(assert (not (= x66 x86)))
(assert (not (= x66 x87)))
(assert (not (= x66 x88)))
(assert (not (= (_ bv6 8) x68)))
(assert (not (= (_ bv6 8) (_ bv9 8))))
(assert (not (= (_ bv6 8) (_ bv1 8))))
(assert (not (= (_ bv6 8) x78)))
(assert (not (= (_ bv6 8) x86)))
(assert (not (= (_ bv6 8) x87)))
(assert (not (= (_ bv6 8) x88)))
(assert (not (= x68 (_ bv9 8))))
(assert (not (= x68 (_ bv1 8))))
(assert (not (= x68 x78)))
(assert (not (= x68 x86)))
(assert (not (= x68 x87)))
(assert (not (= x68 x88)))
(assert (not (= (_ bv9 8) (_ bv1 8))))
(assert (not (= (_ bv9 8) x78)))
(assert (not (= (_ bv9 8) x86)))
(assert (not (= (_ bv9 8) x87)))
(assert (not (= (_ bv9 8) x88)))
(assert (not (= (_ bv1 8) x78)))
(assert (not (= (_ bv1 8) x86)))
(assert (not (= (_ bv1 8) x87)))
(assert (not (= (_ bv1 8) x88)))
(assert (not (= x78 x86)))
(assert (not (= x78 x87)))
(assert (not (= x78 x88)))
(assert (not (= x86 x87)))
(assert (not (= x86 x88)))
(assert (not (= x87 x88)))
(check-sat)
(exit)
